
List of user-set options:

                                    Name   Value                used
                        file_print_level = 5                     yes
                   hessian_approximation = limited-memory        yes
                                  hsllib = /home/ggs24/packages/ThirdParty-HSL/.libs/libcoinhsl.so  yes
                           linear_solver = ma97                  yes
                                max_iter = 1000                  yes
                             output_file = IPOPT.out             yes
                             print_level = 5                     yes
                      print_user_options = yes                   yes
                                      sb = yes                   yes
                                     tol = 0.0001                yes
This is Ipopt version 3.14.7, running with linear solver ma97.

Number of nonzeros in equality constraint Jacobian...:      328
Number of nonzeros in inequality constraint Jacobian.:    10619
Number of nonzeros in Lagrangian Hessian.............:        0

Error evaluating objective gradient at user provided starting point.
  No scaling factor for objective function computed!
Error evaluating Jacobian of equality constraints at user provided starting point.
  No scaling factors for equality constraints computed!
Error evaluating Jacobian of inequality constraints at user provided starting point.
  No scaling factors for inequality constraints computed!

Number of Iterations....: 0

Number of objective function evaluations             = 0
Number of objective gradient evaluations             = 0
Number of equality constraint evaluations            = 0
Number of inequality constraint evaluations          = 1
Number of equality constraint Jacobian evaluations   = 1
Number of inequality constraint Jacobian evaluations = 0
Number of Lagrangian Hessian evaluations             = 0
Total seconds in IPOPT                               = 1.045

EXIT: Invalid number in NLP function or derivative detected.
